Ordonnancement/plne/source/petit_instance/2job/2job_2.dat
data;
param nombreJob := 2;
param nombreRessource := 3;
param duree := 1 8 2 7;
param capaciteRessource := 1 8 2 9 3 14;
param besoinRessource : 1 2 3 :=
                    1   2 8 7
                    2   4 2 1;
end;

