Ordonnancement/plne/source/glpk_resultat/2job/2job_2.sol
Problem:    glpsolRcpsp
Rows:       104
Columns:    31 (30 integer, 30 binary)
Non-zeros:  415
Status:     INTEGER OPTIMAL
Objective:  obj = 15 (MINimum)

   No.   Row name        Activity     Lower bound   Upper bound
------ ------------    ------------- ------------- -------------
     1 periode[1]                  8             8             = 
     2 periode[2]                  7             7             = 
     3 complet[1,1]                8                           8 
     4 complet[1,2]                8                           8 
     5 complet[1,3]                8                           8 
     6 complet[1,4]                8                           8 
     7 complet[1,5]                8                           8 
     8 complet[1,6]                8                           8 
     9 complet[1,7]               -1                           8 
    10 complet[1,8]                6                           8 
    11 complet[1,9]                5                           8 
    12 complet[1,10]
                                   4                           8 
    13 complet[1,11]
                                   3                           8 
    14 complet[1,12]
                                   2                           8 
    15 complet[1,13]
                                   1                           8 
    16 complet[2,1]                5                           7 
    17 complet[2,2]                4                           7 
    18 complet[2,3]                3                           7 
    19 complet[2,4]                2                           7 
    20 complet[2,5]                1                           7 
    21 complet[2,6]                0                           7 
    22 complet[2,7]                7                           7 
    23 complet[2,8]                0                           7 
    24 complet[2,9]                0                           7 
    25 complet[2,10]
                                   0                           7 
    26 complet[2,11]
                                   0                           7 
    27 complet[2,12]
                                   0                           7 
    28 complet[2,13]
                                   0                           7 
    29 cmax[1,1]                  15            -0               
    30 cmax[1,2]                  15            -0               
    31 cmax[1,3]                  15            -0               
    32 cmax[1,4]                  15            -0               
    33 cmax[1,5]                  15            -0               
    34 cmax[1,6]                  15            -0               
    35 cmax[1,7]                  15            -0               
    36 cmax[1,8]                   7            -0               
    37 cmax[1,9]                   6            -0               
    38 cmax[1,10]                  5            -0               
    39 cmax[1,11]                  4            -0               
    40 cmax[1,12]                  3            -0               
    41 cmax[1,13]                  2            -0               
    42 cmax[1,14]                  1            -0               
    43 cmax[1,15]                  0            -0               
    44 cmax[2,1]                  14            -0               
    45 cmax[2,2]                  13            -0               
    46 cmax[2,3]                  12            -0               
    47 cmax[2,4]                  11            -0               
    48 cmax[2,5]                  10            -0               
    49 cmax[2,6]                   9            -0               
    50 cmax[2,7]                   8            -0               
    51 cmax[2,8]                  15            -0               
    52 cmax[2,9]                  15            -0               
    53 cmax[2,10]                 15            -0               
    54 cmax[2,11]                 15            -0               
    55 cmax[2,12]                 15            -0               
    56 cmax[2,13]                 15            -0               
    57 cmax[2,14]                 15            -0               
    58 cmax[2,15]                 15            -0               
    59 ressource[1,1]
                                   4                           8 
    60 ressource[1,2]
                                   4                           8 
    61 ressource[1,3]
                                   4                           8 
    62 ressource[1,4]
                                   4                           8 
    63 ressource[1,5]
                                   4                           8 
    64 ressource[1,6]
                                   4                           8 
    65 ressource[1,7]
                                   4                           8 
    66 ressource[1,8]
                                   2                           8 
    67 ressource[1,9]
                                   2                           8 
    68 ressource[1,10]
                                   2                           8 
    69 ressource[1,11]
                                   2                           8 
    70 ressource[1,12]
                                   2                           8 
    71 ressource[1,13]
                                   2                           8 
    72 ressource[1,14]
                                   2                           8 
    73 ressource[1,15]
                                   2                           8 
    74 ressource[2,1]
                                   2                           9 
    75 ressource[2,2]
                                   2                           9 
    76 ressource[2,3]
                                   2                           9 
    77 ressource[2,4]
                                   2                           9 
    78 ressource[2,5]
                                   2                           9 
    79 ressource[2,6]
                                   2                           9 
    80 ressource[2,7]
                                   2                           9 
    81 ressource[2,8]
                                   8                           9 
    82 ressource[2,9]
                                   8                           9 
    83 ressource[2,10]
                                   8                           9 
    84 ressource[2,11]
                                   8                           9 
    85 ressource[2,12]
                                   8                           9 
    86 ressource[2,13]
                                   8                           9 
    87 ressource[2,14]
                                   8                           9 
    88 ressource[2,15]
                                   8                           9 
    89 ressource[3,1]
                                   1                          14 
    90 ressource[3,2]
                                   1                          14 
    91 ressource[3,3]
                                   1                          14 
    92 ressource[3,4]
                                   1                          14 
    93 ressource[3,5]
                                   1                          14 
    94 ressource[3,6]
                                   1                          14 
    95 ressource[3,7]
                                   1                          14 
    96 ressource[3,8]
                                   7                          14 
    97 ressource[3,9]
                                   7                          14 
    98 ressource[3,10]
                                   7                          14 
    99 ressource[3,11]
                                   7                          14 
   100 ressource[3,12]
                                   7                          14 
   101 ressource[3,13]
                                   7                          14 
   102 ressource[3,14]
                                   7                          14 
   103 ressource[3,15]
                                   7                          14 
   104 obj                        15                             

   No. Column name       Activity     Lower bound   Upper bound
------ ------------    ------------- ------------- -------------
     1 x[1,1]       *              0             0             1 
     2 x[1,2]       *              0             0             1 
     3 x[1,3]       *              0             0             1 
     4 x[1,4]       *              0             0             1 
     5 x[1,5]       *              0             0             1 
     6 x[1,6]       *              0             0             1 
     7 x[1,7]       *              0             0             1 
     8 x[1,8]       *              1             0             1 
     9 x[1,9]       *              1             0             1 
    10 x[1,10]      *              1             0             1 
    11 x[1,11]      *              1             0             1 
    12 x[1,12]      *              1             0             1 
    13 x[1,13]      *              1             0             1 
    14 x[1,14]      *              1             0             1 
    15 x[1,15]      *              1             0             1 
    16 x[2,1]       *              1             0             1 
    17 x[2,2]       *              1             0             1 
    18 x[2,3]       *              1             0             1 
    19 x[2,4]       *              1             0             1 
    20 x[2,5]       *              1             0             1 
    21 x[2,6]       *              1             0             1 
    22 x[2,7]       *              1             0             1 
    23 x[2,8]       *              0             0             1 
    24 x[2,9]       *              0             0             1 
    25 x[2,10]      *              0             0             1 
    26 x[2,11]      *              0             0             1 
    27 x[2,12]      *              0             0             1 
    28 x[2,13]      *              0             0             1 
    29 x[2,14]      *              0             0             1 
    30 x[2,15]      *              0             0             1 
    31 z                          15                             

Integer feasibility conditions:

KKT.PE: max.abs.err = 0.00e+00 on row 0
        max.rel.err = 0.00e+00 on row 0
        High quality

KKT.PB: max.abs.err = 0.00e+00 on row 0
        max.rel.err = 0.00e+00 on row 0
        High quality

End of output
